%chk=\\mdstor\ua25450\oneqbit\solution-entropy\benchmarks\propanol-water\calc.chk
# hf/3-21g geom=connectivity

Title Card Required

0 1
 C                 -3.65384612    0.21153846    0.00000000
 H                 -3.29719170   -0.79727154    0.00000000
 H                 -4.72384612    0.21155164    0.00000000
 C                 -3.14050390    0.93749473    1.25740497
 H                 -2.07050392    0.93731216    1.25750243
 H                 -3.49699896    1.94636106    1.25730739
 O                 -3.61739187    0.26354267    2.42499500
 H                 -3.29761293    0.71576496    3.20911006
 C                 -3.14050390    0.93749474   -1.25740497
 H                 -2.07050567    0.93917602   -1.25642706
 H                 -3.49557890    0.43196767   -2.13105486
 H                 -3.49875447    1.94573854   -1.25838411

 1 2 1.0 3 1.0 4 1.0 9 1.0
 2
 3
 4 5 1.0 6 1.0 7 1.0
 5
 6
 7 8 1.0
 8
 9 10 1.0 11 1.0 12 1.0
 10
 11
 12

