%chk=calc.chk 
%nprocshared=10 
%mem=16GB 
# opt=loose freq wb97xd/6-31g(d) 5d scf=(maxconventionalcycles=100,xqc) units=au 

comment

0 1
C -6.0464776098 0.4281966597 1.7325712776
H -6.2339879485 1.4963391591 3.4888461156
H -5.4771170154 -1.4961469895 2.2007227931
C -8.6434017419 0.3390996788 0.4800048395
H -8.5151746487 -0.5741933310 -1.3753247150
H -9.9355937907 -0.7693155296 1.6650384604
O -9.5742690389 2.8377711108 0.2109250153
H -11.2001765665 2.7630401812 -0.5872499892
C -4.0288864283 1.6727118743 0.0773551277
H -2.3971595057 2.1225234419 1.2573990393
H -4.7814689791 3.4490721308 -0.6587848781
C -3.1658938773 -0.0064717370 -2.0993121289
H -1.7030692177 0.9393576767 -3.1876767490
H -2.4012334476 -1.7725802602 -1.3776172268
H -4.7239362348 -0.4422743200 -3.3640553075

