%chk=calc.chk 
%nprocshared=10 
%mem=16GB 
# opt=loose freq wb97xd/6-31g(d) 5d scf=(maxconventionalcycles=100,xqc) units=au 

comment

0 1
C -8.1098369158 0.6554727100 -0.9530369443
H -8.4343158554 -1.2881646775 -0.3422337429
H -9.5760031727 1.1457797046 -2.3150973550
C -8.4510658994 2.4292933773 1.3098695428
H -8.2366192747 4.3947415742 0.6824815338
H -10.3543646885 2.2021109056 2.0843249261
O -6.7933393762 1.9441745895 3.3467981455
H -5.1079609883 2.3631606003 2.8092029100
C -5.4980905485 0.8579642030 -2.1981678330
H -4.7698808362 2.7739692294 -1.9535990655
H -5.6915309097 0.5369453472 -4.2262418601
C -3.6057232629 -1.0516582278 -1.1517581486
H -3.4557612598 -0.9204976619 0.8926283826
H -4.1974765555 -2.9641836567 -1.6210794530
H -1.7462412474 -0.7342207422 -1.9657311454

