%chk=calc.chk 
%nprocshared=10 
%mem=16GB 
# opt=loose freq wb97xd/6-31g(d) 5d scf=(maxconventionalcycles=100,xqc) units=au 

comment

0 1
C -7.3225796798 -0.1038397028 -0.3605092333
H -7.5754414371 -2.0787488888 0.1873512735
H -9.1287149175 0.5735187350 -1.0946805424
C -6.6732462697 1.3863430042 2.0220214717
H -4.7892669248 0.8327336869 2.6957401488
H -6.6607209837 3.4188757218 1.6194381189
O -8.5125179532 0.8431942770 3.8922372873
H -8.1206630730 1.7970873096 5.3839463404
C -5.2924028989 0.0771649192 -2.4054121482
H -5.7880641327 -1.2317725637 -3.9208701720
H -3.4829633982 -0.5295316743 -1.6211517195
C -5.0207413186 2.7246582032 -3.5097572148
H -4.3472198715 4.0486884114 -2.0933959946
H -3.6757149449 2.7071604677 -5.0615512791
H -6.8278167256 3.3935093237 -4.2237970227
