%chk=\\mdstor\ua25450\oneqbit\solution-entropy\benchmarks\methyl-ether\calc.chk
# hf/3-21g geom=connectivity

Title Card Required

0 1
 C                 -0.18166283   -1.19139403    0.97230758
 H                  0.17499160   -2.20020403    0.97230758
 H                  0.17501001   -0.68699584    0.09865608
 H                 -1.25166283   -1.19138085    0.97230758
 O                  0.29501209   -0.51729178    2.13989791
 C                 -0.17918092    0.83179701    2.13922453
 H                 -1.24917826    0.83375886    2.13787283
 H                  0.17730668    1.33559290    3.01329906
 H                  0.17951326    1.33549689    1.26599780

 1 2 1.0 3 1.0 4 1.0 5 1.0
 2
 3
 4
 5 6 1.0
 6 7 1.0 8 1.0 9 1.0
 7
 8
 9

