%chk=\\mdstor\ua25450\oneqbit\solution-entropy\benchmarks2\ts-etoh-h\gau-calc.chk
# hf/3-21g geom=connectivity

Title Card Required

0 2
 C                 -0.47842800   -0.32405700    0.03997200
 H                 -1.32199600    0.65141800   -0.05560100
 H                 -0.70165200   -0.77288900    1.01650100
 O                  0.81587200    0.12309300   -0.11857200
 H                  1.06664800    0.63284600    0.66040000
 H                 -1.96369700    1.43326900   -0.12425800
 C                 -0.84177299   -1.25751910   -1.12974118
 H                 -1.85056121   -1.59565471   -1.01611610
 H                 -0.74567470   -0.72594751   -2.05337355
 H                 -0.18153692   -2.09952918   -1.13245632

 1 3 1.0 4 1.0 7 1.0
 2
 3
 4 5 1.0
 5
 6
 7 8 1.0 9 1.0 10 1.0
 8
 9
 10

