%chk=\\mdstor\ua25450\oneqbit\solution-entropy\benchmarks2\c60-benzene\calc.chk
# hf/3-21g geom=connectivity

Title Card Required

0 1
 C                  2.22408031   -0.28428093    0.00000000
 C                  3.68796931   -0.28428093    0.00000000
 C                  4.38025831    0.91491707    0.00000000
 C                  3.64827631    2.18267507   -0.00001900
 C                  2.26360831    2.18264307    0.00000500
 C                  1.53170231    0.91484807    0.00002100
 C                  1.77170031   -1.39066593   -0.84514300
 C                  2.95598631   -2.07441793   -1.36751300
 C                  4.14034631   -1.39062593   -0.84518700
 C                  5.26051731   -1.23792493   -1.64467700
 C                  5.56451331    1.07634007   -0.84525000
 C                  4.38016231    3.12759907   -0.84526500
 C                  3.68775931    4.02137707   -1.64470200
 C                  2.22386631    4.02135407   -1.64464800
 C                  1.53160031    3.12755007   -0.84515400
 C                  0.34727831    2.44374307   -1.36745400
 C                  0.34734031    1.07622607   -0.84510200
 C                 -0.08056569    0.02972607   -1.64450700
 C                  0.65143131   -1.23803293   -1.64452900
 C                  2.95593431   -2.56852293   -2.66101900
 C                  1.77160831   -2.40715493   -3.50614400
 C                  0.65139431   -1.76039693   -3.01203600
 C                 -0.08061969   -0.81548893   -3.85720300
 C                 -0.53298969    0.29086307   -3.01201000
 C                 -0.53304169    1.58438107   -3.50610800
 C                 -0.08067569    2.69075607   -2.66095700
 C                  0.65120931    3.63571907   -3.50619100
 C                  1.77143631    4.28252207   -3.01217300
 C                  5.56445231    2.44387407   -1.36763700
 C                  4.14001631    3.26605907   -5.67325800
 C                  5.26028631    3.11343707   -4.87388600
 C                  5.99225931    1.84568607   -4.87388000
 C                  5.56435731    0.79919107   -5.67330600
 C                  4.38002731    0.96057007   -6.51843700
 C                  2.22374431    2.15967507   -6.51837200
 C                  1.77137531    3.26603407   -5.67318700
 C                  2.95568431    3.94983507   -5.15088600
 C                  2.95572131    4.44393307   -3.85737800
 C                  4.14008031    4.28253807   -3.01221300
 C                  5.26030631    3.63580107   -3.50632700
 C                  6.44465431    1.58453607   -3.50637300
 C                  6.44471131    0.29104607   -3.01226300
 C                  5.99231831   -0.81535493   -3.85740200
 C                  5.56439031   -0.56833393   -5.15092200
 C                  4.38010631   -1.25212993   -5.67323000
 C                  3.64810431   -0.30722993   -6.51838300
 C                  2.26343431   -0.30724593   -6.51832700
 C                  1.53144731    0.96050407   -6.51833200
 C                  0.65117431    3.11334107   -4.87370400
 C                 -0.08072469    1.84554807   -4.87365800
 C                  0.34716031    0.79907207   -5.67310300
 C                  0.34721531   -0.56845593   -5.15073900
 C                  1.53154231   -1.25219893   -5.67312600
 C                  2.22393031   -2.14597793   -4.87371500
 C                  3.68782331   -2.14595193   -4.87374700
 C                  4.14023831   -2.40708393   -3.50626500
 C                  5.26045931   -1.76028493   -3.01222400
 C                  5.99228131    2.69091807   -2.66118400
 C                  5.99239631    0.02987607   -1.64469900
 C                  3.68765231    2.15971307   -6.51840400

 1 2 1.0 6 2.0 7 1.0
 2 3 2.0 9 1.0
 3 4 1.0 11 1.0
 4 5 2.0 12 1.0
 5 6 1.0 15 1.0
 6 17 1.0
 7 8 1.0 19 2.0
 8 9 1.0 20 2.0
 9 10 2.0
 10 57 1.0 59 1.0
 11 29 1.0 59 2.0
 12 13 2.0 29 1.0
 13 14 1.0 39 1.0
 14 15 2.0 28 1.0
 15 16 1.0
 16 17 1.0 26 2.0
 17 18 2.0
 18 19 1.0 24 1.0
 19 22 1.0
 20 21 1.0 56 1.0
 21 22 2.0 54 1.0
 22 23 1.0
 23 24 1.0 52 2.0
 24 25 2.0
 25 26 1.0 50 1.0
 26 27 1.0
 27 28 2.0 49 1.0
 28 38 1.0
 29 58 2.0
 30 31 2.0 37 1.0 60 1.0
 31 32 1.0 40 1.0
 32 33 2.0 41 1.0
 33 34 1.0 44 1.0
 34 46 1.0 60 2.0
 35 36 1.0 48 2.0 60 1.0
 36 37 1.0 49 2.0
 37 38 2.0
 38 39 1.0
 39 40 2.0
 40 58 1.0
 41 42 2.0 58 1.0
 42 43 1.0 59 1.0
 43 44 2.0 57 1.0
 44 45 1.0
 45 46 1.0 55 2.0
 46 47 2.0
 47 48 1.0 53 1.0
 48 51 1.0
 49 50 1.0
 50 51 2.0
 51 52 1.0
 52 53 1.0
 53 54 2.0
 54 55 1.0
 55 56 1.0
 56 57 2.0
 57
 58
 59
 60

