%chk=\\mdstor\ua25450\oneqbit\solution-entropy\benchmarks\phenol-benzene\calc.chk
# hf/3-21g geom=connectivity

Title Card Required

0 1
 C                 -0.01517451   -0.08345979    0.00000000
 C                  1.37998549   -0.08345979    0.00000000
 C                  2.07752349    1.12429121    0.00000000
 C                  1.37986949    2.33280021   -0.00119900
 C                 -0.01495551    2.33272221   -0.00167800
 C                 -0.71255651    1.12451621   -0.00068200
 H                 -0.56493351   -1.03577679    0.00045000
 H                  1.92949349   -1.03597279    0.00131500
 H                  1.93006949    3.28494321   -0.00125800
 H                 -0.56507751    3.28500321   -0.00263100
 H                 -1.81216051    1.12469921   -0.00086200
 O                  3.50752325    1.12439524    0.00082444
 H                  3.82849959    1.12328005   -0.90392577

 1 2 1.5 6 1.5 7 1.0
 2 3 1.5 8 1.0
 3 4 1.5 12 1.0
 4 5 1.5 9 1.0
 5 6 1.5 10 1.0
 6 11 1.0
 7
 8
 9
 10
 11
 12 13 1.0
 13

