# HF

comment

0 1
O          -6.48651271383002    0.58799409896577    0.00000000000000
H          -5.52757818748203    0.60706720701444    0.00000000000000
H          -6.78867121868795    1.49833604401979    0.00000000000000



