%chk=\\mdstor\ua25450\oneqbit\solution-entropy\benchmarks\cyclohexane\cyclohexane.chk
# hf/3-21g geom=connectivity

Title Card Required

0 1
 C                 -7.97088310   -1.89184722    0.00000000
 C                 -6.45577710   -1.89184722    0.00000000
 C                 -5.90384610   -0.48076922    0.00000000
 C                 -6.45350910    0.32376778    1.16066100
 C                 -7.96863410    0.32442878    1.16017200
 C                 -8.52143410   -1.08619222    1.15887600
 H                 -4.78524710   -0.51476022    0.06271400
 H                 -6.08322810   -2.43748122    0.90656200
 H                 -6.08048310   -2.44170622   -0.90191000
 H                 -8.34357110   -1.45881822   -0.96538500
 H                 -8.34648010   -2.94606722    0.06350200
 H                 -6.08097410   -0.11107722    2.12527200
 H                 -6.07748610    1.37790478    1.09866600
 H                 -8.34395410    0.87385678    2.06228600
 H                 -8.34048910    0.87102978    0.25384900
 H                 -8.25543010   -1.59191422    2.12419100
 H                 -9.63998210   -1.05113122    1.09393800
 H                 -6.17246410    0.02486378   -0.96454600

 1 2 1.0 6 1.0 11 1.0 10 1.0
 2 3 1.0 8 1.0 9 1.0
 3 4 1.0 7 1.0 18 1.0
 4 5 1.0 12 1.0 13 1.0
 5 6 1.0 14 1.0 15 1.0
 6 17 1.0 16 1.0
 7
 8
 9
 10
 11
 12
 13
 14
 15
 16
 17
 18

