%chk=calc.chk 
%nprocshared=10 
%mem=16GB 
# opt=loose freq wb97xd/6-31g(d) 5d scf=(maxconventionalcycles=100,xqc) units=au 

comment

0 1
C -4.9330507054 2.1678295396 0.2284599336
H -5.9968835884 3.8278428217 -0.3947418800
H -3.0385754991 2.7981500031 0.7528544778
C -6.1796635424 1.0831207494 2.6039111250
H -5.3720151647 -0.7638785863 3.0514500217
H -5.8039146692 2.3609105263 4.2039084927
O -8.7994541867 0.6728069155 2.3823814836
H -9.5855083127 2.2242029491 1.8425520239
C -4.7184024882 0.2845448232 -1.9543249766
H -3.7869404945 -1.4255964589 -1.2708717801
H -3.5143245791 1.1108016897 -3.4158567040
C -7.2647415049 -0.4100722840 -3.1073872650
H -8.4936825924 -1.2394743686 -1.6878980785
H -8.1861419160 1.2587721061 -3.8811455728
H -7.0103930954 -1.7685526791 -4.6286085244

