%chk=calc.chk 
%nprocshared=10 
%mem=16GB 
# opt=loose freq wb97xd/6-31g(d) 5d scf=(maxconventionalcycles=100,xqc) units=au 

comment

0 1
C -5.2867746027 1.8008679675 -0.1628037360
H -4.5724575632 3.2212104336 -1.4772314204
H -3.6689001950 0.8708665456 0.7174239918
C -6.8101954499 3.1523451282 1.8915646269
H -5.6856593759 4.6794200629 2.7076537900
H -8.5267016186 3.9789043873 1.0567495916
O -7.4447415680 1.5851537665 3.9454541870
H -8.4083643538 0.1719474838 3.3216252947
C -6.8460973926 -0.1448288202 -1.6214596715
H -8.5173311273 0.7752264483 -2.4139648585
H -7.4887508564 -1.6346708453 -0.3422981686
C -5.3164865257 -1.3435634560 -3.7462535671
H -6.4492611401 -2.7216416960 -4.7674731718
H -4.6845540224 0.0911680760 -5.0755744325
H -3.6600457665 -2.2976694412 -2.9899793246

