%chk=\\mdstor\ua25450\oneqbit\solution-entropy\benchmarks\diethylamine-benzene\calc.chk
# hf/3-21g geom=connectivity

Title Card Required

0 1
 N                 -0.78907436   -0.15933232    0.00000000
 H                 -0.45426060   -1.10161620   -0.00091459
 C                 -0.29906587    0.53362594    1.20025020
 H                 -0.65572030    1.54243594    1.20025020
 H                  0.77093413    0.53361300    1.20025034
 C                 -0.81240809   -0.19233163    2.45765442
 H                 -0.52692518    0.35880975    3.32922925
 H                 -1.87901773   -0.26662871    2.41613546
 H                 -0.38795403   -1.17357485    2.50124915
 C                 -0.30126133    0.53517580   -1.20024869
 H                 -0.66003381    1.54323427   -1.19958935
 H                  0.76873613    0.53741057   -1.20090649
 C                 -0.81385151   -0.19131148   -2.45765378
 H                 -0.52111665    0.35533914   -3.32965114
 H                 -0.39550512   -1.17537462   -2.49646153
 H                 -1.88108296   -0.25866589   -2.42049986

 1 2 1.0 3 1.0 10 1.0
 2
 3 4 1.0 5 1.0 6 1.0
 4
 5
 6 7 1.0 8 1.0 9 1.0
 7
 8
 9
 10 11 1.0 12 1.0 13 1.0
 11
 12
 13 14 1.0 15 1.0 16 1.0
 14
 15
 16

