%chk=\\mdstor\ua25450\oneqbit\solution-entropy\benchmarks\dioxane-cyclohexane\calc.chk
# hf/3-21g geom=connectivity

Title Card Required

0 1
 C                  1.36105672   -1.41107800    0.00000000
 C                  2.87616272   -1.41107800    0.00000000
 C                  2.87843072    0.80453700    1.16066100
 C                  1.36330572    0.80519800    1.16017200
 H                  3.24871172   -1.95671200    0.90656200
 H                  3.25145672   -1.96093700   -0.90191000
 H                  0.98836872   -0.97804900   -0.96538500
 H                  0.98545972   -2.46529800    0.06350200
 H                  3.25096572    0.36969200    2.12527200
 H                  3.25445372    1.85867400    1.09866600
 H                  0.98798572    1.35462600    2.06228600
 H                  0.99145072    1.35179900    0.25384900
 O                  0.81050572   -0.60542300    1.15887600
 O                  3.42809372    0.00000000    0.00000000

 1 2 1.0 8 1.0 7 1.0 13 1.0
 2 5 1.0 6 1.0 14 1.0
 3 4 1.0 9 1.0 10 1.0 14 1.0
 4 11 1.0 12 1.0 13 1.0
 5
 6
 7
 8
 9
 10
 11
 12
 13
 14

