%chk=\\mdstor\ua25450\oneqbit\solution-entropy\benchmarks\nitromethane-ethanol\calc.chk
# hf/3-21g geom=connectivity

Title Card Required

0 1
 C                  1.56145096    0.88264394   -0.13527993
 H                  1.91810539   -0.12616606   -0.13527993
 H                  1.91812380    1.38704213   -1.00893144
 H                  0.49145096    0.88265713   -0.13527993
 N                  2.05145944    1.57560221    1.06497026
 O                  2.24260153    2.75797972    1.00278545
 O                  2.24052740    0.93090721    2.05846432

 1 2 1.0 3 1.0 4 1.0 5 1.0
 2
 3
 4
 5 6 1.5 7 1.5
 6
 7

