%chk=calc.chk
%nprocshared=2
%mem=4GB
# opt freq wb97xd/6-31g(d) 5d
scf=(maxconventionalcycles=100,xqc)

comment

0 1
C          -3.65048476709823    0.21629100485885    0.01711307276583
H          -3.29743285136556   -0.81112242049994    0.01779598746829
H          -3.29511779343397    0.71871376553364   -0.87805925616026
H          -4.73682475368588    0.20682900856681    0.01771800234132
C          -3.14236054477890    0.93489242418165    1.25698892126456
H          -2.04222894282042    0.94740362819074    1.25708639354185
H          -3.49700989848482    1.97636732021621    1.25691783879049
O          -3.62419153447790    0.25385220897337    2.39716743763993
H          -3.30941771385433    0.69900384997866    3.18993995234799


