%chk=\\mdstor\ua25450\oneqbit\solution-entropy\benchmarks\aniline-hexane\calc.chk
# hf/3-21g geom=connectivity

Title Card Required

0 1
 C                  4.09699005    0.26755852    0.00000000
 C                  5.49215005    0.26755852    0.00000000
 C                  6.18968805    1.47530952    0.00000000
 C                  5.49203405    2.68381852   -0.00119900
 C                  4.09720905    2.68374052   -0.00167800
 C                  3.39960805    1.47553452   -0.00068200
 H                  3.54723105   -0.68475848    0.00045000
 H                  6.04165805   -0.68495448    0.00131500
 H                  7.28936805    1.47538952    0.00063400
 H                  3.54708705    3.63602152   -0.00263100
 H                  2.30000405    1.47571752   -0.00086200
 N                  6.22751521    3.95659795   -0.00127787
 H                  5.98714070    4.48043265   -0.81847876
 H                  5.98512356    4.48169945    0.81451297

 1 2 1.5 6 1.5 7 1.0
 2 3 1.5 8 1.0
 3 4 1.5 9 1.0
 4 5 1.5 12 1.0
 5 6 1.5 10 1.0
 6 11 1.0
 7
 8
 9
 10
 11
 12 13 1.0 14 1.0
 13
 14

