%chk=\\mdstor\ua25450\oneqbit\solution-entropy\benchmarks\methanol\calc.chk
# hf/3-21g geom=connectivity

Title Card Required

0 1
 O                  0.29501209   -0.51729178    2.13989791
 H                  1.25500887   -0.51905402    2.13814375
 C                 -0.17918092    0.83179700    2.13922453
 H                 -1.24917733    0.83376083    2.14117765
 H                  0.18000634    1.33654098    3.01164532
 H                  0.17681267    1.33454682    1.26434672

 1 2 1.0 3 1.0
 2
 3 4 1.0 5 1.0 6 1.0
 4
 5
 6

